proyfinal/src/viki/013/experimentInOfficeAgust.take6.output/8ac5f6dc-ee10-495e-b646-5bd489eaa77f.als.dat
{'cnf.clauses': '161767',
 'cnf.totvars': '87638',
 'conflict literals': '1022761',
 'conflicts': '17150',
 'decisions': '54563',
 'memused.mb': '38.98',
 'outcome': 'UNSAT',
 'propagations': '27594473',
 'restarts': '63',
 'solver.msecs': 2690,
 'stats_inv': {'cnf.clauses': '118081',
               'cnf.totvars': '69608',
               'conflict literals': '2',
               'conflicts': '1',
               'decisions': '34653',
               'memused.mb': '17.73',
               'outcome': 'SAT',
               'propagations': '70238',
               'restarts': '1',
               'solver.msecs': 37,
               'task.output': "Reading from standard input... Use '--help' for "
                              'help.\n'
                              '============================[ Problem '
                              'Statistics ]=============================\n'
                              '|                                                                             '
                              '|\n'
                              '|  Number of variables:         '
                              '69608                                         '
                              '|\n'
                              '|  Number of clauses:          '
                              '118081                                         '
                              '|\n'
                              '|  Parse time:                   0.03 '
                              's                                       |\n'
                              '|                                                                             '
                              '|\n'
                              '============================[ Search Statistics '
                              ']==============================\n'
                              '| Conflicts |          ORIGINAL         '
                              '|          LEARNT          | Progress |\n'
                              '|           |    Vars  Clauses Literals |    '
                              'Limit  Clauses Lit/Cl |          |\n'
                              '===============================================================================\n'
                              '===============================================================================\n'
                              'restarts              : 1\n'
                              'conflicts             : 1              (26 '
                              '/sec)\n'
                              'decisions             : 34653          (0.00 % '
                              'random) (917669 /sec)\n'
                              'propagations          : 70238          (1860018 '
                              '/sec)\n'
                              'conflict literals     : 2              (0.00 % '
                              'deleted)\n'
                              'Memory used           : 17.73 MB\n'
                              'CPU time              : 0.037762 s\n'
                              '\n'
                              'SATISFIABLE\n'},
 'task.msecs': 3974}
