proyfinal/src/viki/013/andrea/andrea-localstore/experimentInOfficeAgust.take6/worker_3/8ac5f6dc-ee10-495e-b646-5bd489eaa77f.als.cnf.out
Reading from standard input... Use '--help' for help.
============================[ Problem Statistics ]=============================
|                                                                             |
|  Number of variables:         87638                                         |
|  Number of clauses:          161767                                         |
|  Parse time:                   0.04 s                                       |
|                                                                             |
============================[ Search Statistics ]==============================
| Conflicts |          ORIGINAL         |          LEARNT          | Progress |
|           |    Vars  Clauses Literals |    Limit  Clauses Lit/Cl |          |
===============================================================================
|       100 |   63793   110262   275600 |    40429       99     77 | 27.209 % |
|       250 |   63793   110218   275510 |    44472      249     75 | 27.209 % |
|       475 |   63793   110218   275510 |    48919      474     57 | 27.209 % |
|       812 |   63793   110218   275510 |    53811      811     64 | 27.209 % |
|      1318 |   63792   110215   275504 |    59192     1315     72 | 27.210 % |
|      2077 |   63792   110215   275504 |    65111     2074     65 | 27.210 % |
|      3216 |   63792   110215   275504 |    71623     3213     58 | 27.210 % |
|      4924 |   63791   110212   275498 |    78785     4920     68 | 27.211 % |
|      7486 |   63771   110128   275305 |    86664     6718     66 | 27.234 % |
|     11330 |   50187    70292   177393 |    95330     9552     67 | 42.734 % |
|     17096 |   49237    65799   166529 |   104863     9170     52 | 43.818 % |
===============================================================================
restarts              : 63
conflicts             : 17150          (6374 /sec)
decisions             : 54563          (0.00 % random) (20278 /sec)
propagations          : 27594473       (10255370 /sec)
conflict literals     : 1022761        (57.10 % deleted)
Memory used           : 38.98 MB
CPU time              : 2.69073 s

UNSATISFIABLE
